 &GLOBAL
   PRINT_LEVEL  MEDIUM
   PROJECT_NAME BA2_PbI4_MD
   RUN_TYPE  MD
 &END GLOBAL
 &FORCE_EVAL
  METHOD  QS
  &DFT
    UKS .FALSE. 
    BASIS_SET_FILE_NAME BASIS_MOLOPT
    POTENTIAL_FILE_NAME POTENTIAL 
    &MGRID
      NGRIDS 16
      CUTOFF 500
      REL_CUTOFF 50
    &END MGRID
    &QS
      METHOD GPW
      EPS_DEFAULT 1.000E-14
    &END QS
    &POISSON
      PERIODIC XYZ 
      PSOLVER PERIODIC
    &END
    &SCF
      &DIAGONALIZATION ON
      &END DIAGONALIZATION
      &MIXING
        ALPHA 0.3
        METHOD BROYDEN_MIXING
        NBROYDEN 8
      &END MIXING
      EPS_SCF 1.0E-6
      SCF_GUESS ATOMIC
      MAX_SCF  50
      ADDED_MOS 50
    &END SCF
    &XC
      &XC_FUNCTIONAL
         &PBE
         &END PBE
      &END XC_FUNCTIONAL
      ! In CP2K versions lower than v7, this part is required for TDDFT calculations
      &XC_GRID
        XC_DERIV SPLINE2_SMOOTH
      &END XC_GRID
      &VDW_POTENTIAL
         POTENTIAL_TYPE PAIR_POTENTIAL 
         &PAIR_POTENTIAL
            PARAMETER_FILE_NAME dftd3.dat
            TYPE DFTD3
            REFERENCE_FUNCTIONAL PBE
            R_CUTOFF [angstrom] 16
         &END
      &END VDW_POTENTIAL
    &END XC
    &PRINT
      &MULLIKEN OFF
      &END
      &HIRSHFELD OFF
      &END
    &END PRINT
  &END DFT
  &SUBSYS

    &CELL
      A   8.4280004501         0.0000000000         0.0000000000
      B   0.0000000000         8.9860000610         0.0000000000
      C   0.0000000000         0.0000000000        26.2329998016
      PERIODIC  XYZ 
    &END CELL

    &TOPOLOGY
      COORD_FILE_NAME optimized_unit_cell.xyz
      COORD_FILE_FORMAT XYZ
      ! Only in case you use cif file
      !&GENERATE
      !  REORDER T
      !&END
    &END

    &KIND  Cs
      BASIS_SET DZVP-MOLOPT-SR-GTH 
      POTENTIAL GTH-PBE-q9 
    &END KIND
    &KIND Pb
      BASIS_SET DZVP-MOLOPT-SR-GTH 
      POTENTIAL GTH-PBE-q4
    &END KIND
    &KIND I 
      BASIS_SET  DZVP-MOLOPT-SR-GTH 
      POTENTIAL  GTH-PBE-q7
    &END KIND
    &KIND H
      BASIS_SET  DZVP-MOLOPT-GTH 
      POTENTIAL  GTH-PBE-q1
    &END KIND
    &KIND C 
      BASIS_SET  DZVP-MOLOPT-GTH 
      POTENTIAL  GTH-PBE-q4
    &END KIND
    &KIND O 
      BASIS_SET  DZVP-MOLOPT-GTH 
      POTENTIAL  GTH-PBE-q6
    &END KIND
    &KIND N
      BASIS_SET  DZVP-MOLOPT-GTH 
      POTENTIAL  GTH-PBE-q5
    &END KIND
  &END SUBSYS
 &END FORCE_EVAL

&MOTION
 &MD
   ENSEMBLE NVT
   TEMPERATURE [K] 300
   TIMESTEP [fs] 1.0
   STEPS 1000
   &THERMOSTAT
     REGION GLOBAL
     TYPE CSVR
	 &CSVR
	   TIMECON 16
	 &END
   &END THERMOSTAT
 &END
 &PRINT
   &TRAJECTORY
     &EACH
       MD 1
     &END EACH
   &END TRAJECTORY
   &VELOCITIES ON
   &END VELOCITIES
   &FORCES ON
   &END FORCES
   &RESTART
     BACKUP_COPIES 1
     &EACH
       MD 1
     &END EACH
   &END RESTART
 &END PRINT 
&END 
