 &GLOBAL
   PRINT_LEVEL  MEDIUM
   PROJECT_NAME C3N4-QD
   RUN_TYPE  ENERGY
   !For huge cutoff this keyword is required
   EXTENDED_FFT_LENGTHS .TRUE.
 &END GLOBAL

 &FORCE_EVAL
   METHOD  QS

   &PROPERTIES
     &TDDFPT
        NSTATES     5             # number of excited states
        MAX_ITER    200           # maximum number of Davidson iterations
        CONVERGENCE [eV] 1.0e-5   # convergence on maximum energy change between iterations
        &MGRID
           NGRIDS 4
           CUTOFF 500 # separate cutoff for TDDFPT calc
        &END
        ! Only in case you have a tdwfn file from previous calculations
        !RESTART     .TRUE.
        !WFN_RESTART_FILE_NAME RESTART.tdwfn
     &END TDDFPT
   &END PROPERTIES


   &DFT
    UKS .FALSE. 
    BASIS_SET_FILE_NAME BASIS_MOLOPT
    POTENTIAL_FILE_NAME POTENTIAL 
    &MGRID
     NGRIDS 4
     CUTOFF 300
    &END MGRID
    &QS
      METHOD GPW
      EPS_DEFAULT 1.000E-14
    &END QS

    &POISSON
      PERIODIC XYZ
      POISSON_SOLVER PERIODIC
    &END

    &SCF
      &DIAGONALIZATION ON
      &END DIAGONALIZATION
      &MIXING
        ALPHA 0.3
        METHOD BROYDEN_MIXING
        NBROYDEN 8
      &END MIXING
      EPS_SCF 1.0E-6
      SCF_GUESS ATOMIC
      MAX_SCF  50
      ADDED_MOS 10
      ! Only in case you need outer scf for convergence
      !&OUTER_SCF  T
      !  EPS_SCF    1.0E-06
      !  MAX_SCF 20
      !&END OUTER_SCF
    &END SCF

    &XC
      &XC_FUNCTIONAL
         &PBE
         &END PBE
      &END XC_FUNCTIONAL
      ! In CP2K versions lower than v7, this part is required for TDDFT calculations
      &XC_GRID
        XC_DERIV SPLINE2_SMOOTH
      &END XC_GRID
      &VDW_POTENTIAL
         POTENTIAL_TYPE PAIR_POTENTIAL 
         &PAIR_POTENTIAL
            PARAMETER_FILE_NAME dftd3.dat
            TYPE DFTD3
            REFERENCE_FUNCTIONAL PBE
            R_CUTOFF [angstrom] 16
         &END
      &END VDW_POTENTIAL
    &END XC

    &PRINT
      &MULLIKEN OFF
      &END
      &HIRSHFELD OFF
      &END
      &MO_CUBES
        NHOMO 3
        NLUMO 3
        ! If the it is set to .TRUE. or T, it will print out the cube files
        ! In this case it will only print all the HOMO energies and 3 LUMO energies
        WRITE_CUBE F
      &END
      &PDOS
        APPEND      .TRUE.
        COMPONENTS  .TRUE.
        NLUMO -1
      &END PDOS
    &END PRINT
  &END DFT
  &SUBSYS
  
    &CELL
      ABC 25.0  25.0  25.0
      PERIODIC  XYZ
    &END CELL

    &TOPOLOGY
      COORD_FILE_NAME c3n4.xyz
      COORD_FILE_FORMAT XYZ
      ! Only in case you use cif file
      !&GENERATE
      !  REORDER T
      !&END
    &END

    &KIND H
      BASIS_SET  DZVP-MOLOPT-GTH 
      POTENTIAL  GTH-PBE-q1
    &END KIND
    &KIND C 
      BASIS_SET  DZVP-MOLOPT-GTH 
      POTENTIAL  GTH-PBE-q4
    &END KIND
    &KIND N
      BASIS_SET  DZVP-MOLOPT-GTH 
      POTENTIAL  GTH-PBE-q5
    &END KIND
  &END SUBSYS
 &END FORCE_EVAL

