 &GLOBAL
   PRINT_LEVEL  MEDIUM
   PROJECT_NAME BA2_PbI4_HSE06
   RUN_TYPE  ENERGY
 &END GLOBAL
 &FORCE_EVAL
  METHOD  QS
  &DFT
    UKS .FALSE. 
    BASIS_SET_FILE_NAME BASIS_MOLOPT
    BASIS_SET_FILE_NAME BASIS_ADMM
    BASIS_SET_FILE_NAME BASIS_ADMM_MOLOPT
    POTENTIAL_FILE_NAME GTH_POTENTIALS
    WFN_RESTART_FILE_NAME BA2_PbI4_PBE-RESTART.wfn 
    &MGRID
      NGRIDS 16
      CUTOFF 500
      REL_CUTOFF 50
    &END MGRID
    &QS
      METHOD GPW
      EPS_DEFAULT 1.000E-14
    &END QS
    &POISSON
      PERIODIC XYZ 
      PSOLVER PERIODIC
    &END
    &SCF
      &DIAGONALIZATION ON
      &END DIAGONALIZATION
      &MIXING
        ALPHA 0.3
        METHOD BROYDEN_MIXING
        NBROYDEN 8
      &END MIXING
      EPS_SCF 1.0E-6
      SCF_GUESS RESTART
      MAX_SCF  50
      ADDED_MOS 50
    &END SCF
    &XC
      &XC_FUNCTIONAL
      &XWPBE
        SCALE_X -0.25
        SCALE_X0 1.0 
        OMEGA 0.11
      &END
      &PBE
        SCALE_X 0.0
        SCALE_C 1.0
      &END PBE
      &END XC_FUNCTIONAL
      &HF
        &SCREENING
          EPS_SCHWARZ 1.0E-6
          EPS_SCHWARZ_FORCES 1.0E-5
          SCREEN_ON_INITIAL_P FALSE
        &END SCREENING
        &INTERACTION_POTENTIAL
          CUTOFF_RADIUS 10
          POTENTIAL_TYPE SHORTRANGE
          OMEGA 0.11
        &END INTERACTION_POTENTIAL
        ! Defines the maximum amount of memory [MiB] to be consumed by the full HFX module.
        !&MEMORY
        !  MAX_MEMORY  10000
        !  EPS_STORAGE_SCALING 0.1
        !&END MEMORY
        FRACTION 0.25
      &END HF
      ! In CP2K versions lower than v7, this part is required for TDDFT calculations
      &XC_GRID
        XC_DERIV SPLINE2_SMOOTH
      &END XC_GRID
      &VDW_POTENTIAL
         POTENTIAL_TYPE PAIR_POTENTIAL 
         &PAIR_POTENTIAL
            PARAMETER_FILE_NAME dftd3.dat
            TYPE DFTD3
            REFERENCE_FUNCTIONAL PBE
            R_CUTOFF [angstrom] 16
         &END
      &END VDW_POTENTIAL
    &END XC
    &AUXILIARY_DENSITY_MATRIX_METHOD
      METHOD BASIS_PROJECTION
      ADMM_PURIFICATION_METHOD NONE
    &END
    &PRINT
      &MULLIKEN OFF
      &END
      &HIRSHFELD OFF
      &END
      &MO_CUBES
        NHOMO -1  ! All HOMOs
        NLUMO -1  ! All LUMOs
        WRITE_CUBE F
      &END
    &END PRINT
  &END DFT
  &SUBSYS

    &CELL
      A   8.4280004501         0.0000000000         0.0000000000
      B   0.0000000000         8.9860000610         0.0000000000
      C   0.0000000000         0.0000000000        26.2329998016
      PERIODIC  XYZ 
    &END CELL

    &TOPOLOGY
      COORD_FILE_NAME optimized_unit_cell.xyz
      COORD_FILE_FORMAT XYZ
      ! Only in case you use cif file
      !&GENERATE
      !  REORDER T
      !&END
    &END

    &KIND  Cs
      BASIS_SET DZVP-MOLOPT-SR-GTH 
      BASIS_SET AUX_FIT cFIT9
      POTENTIAL GTH-PBE-q9 
    &END KIND
    &KIND Pb
      BASIS_SET DZVP-MOLOPT-SR-GTH 
      BASIS_SET AUX_FIT cFIT6
      POTENTIAL GTH-PBE-q4
    &END KIND
    &KIND I 
      BASIS_SET  DZVP-MOLOPT-SR-GTH 
      BASIS_SET AUX_FIT cFIT6
      POTENTIAL  GTH-PBE-q7
    &END KIND
    &KIND H
      BASIS_SET  DZVP-MOLOPT-GTH 
      BASIS_SET AUX_FIT cFIT3
      POTENTIAL  GTH-PBE-q1
    &END KIND
    &KIND C 
      BASIS_SET  DZVP-MOLOPT-GTH 
      BASIS_SET AUX_FIT cFIT3
      POTENTIAL  GTH-PBE-q4
    &END KIND
    &KIND O 
      BASIS_SET  DZVP-MOLOPT-GTH 
      BASIS_SET AUX_FIT cFIT3
      POTENTIAL  GTH-PBE-q6
    &END KIND
    &KIND N
      BASIS_SET  DZVP-MOLOPT-GTH 
      BASIS_SET AUX_FIT cFIT3
      POTENTIAL  GTH-PBE-q5
    &END KIND
  &END SUBSYS
 &END FORCE_EVAL
